0110000000111000
0011000000111000
0011100000111000
0001110000111000
0000110000111000
0000111000111000
0001111101110000
0001101111100000
0011100111000000
0111000011000000
0111000011100000
0111000001110000
0111000000111000
0111000000011100
0000000000000000
0000000000000000